1:
 ([27, 35, 43, 38, 11, 2, 8, 17, 3, 5, 25, 14, 4, 31, 40, 6, 45, 42, 44, 16, 15, 9, 7, 36, 1, 20, 29, 24, 34, 23, 19, 26, 28, 41, 21, 39, 12, 22, 32, 10, 30, 13, 37, 33, 18], -211.35, [[-4, 27, 35, 43, 38, 11, -4], [-3, 2, 8, 17, 3, 5, -3], [0, 25, 14, 4, 0], [0, 31, 40, 6, 0], [-1, 45, 42, 44, 16, 15, -1], [-1, 9, 7, 36, 1, 20, 29, 24, 34, 23, 19, 26, -1], [-1, 28, 41, 21, 39, 12, 22, 32, 10, 30, 13, 37, 33, -1], [0, 18, 0]], [75, 75, 50, 75, 75, 75, 75, 75], [12, 13, 9, 13, 8, 7, 10, 4])
 [-274.55, -250.34, -237.38, -236.07, -225.57, -212.99, -212.67, -211.35]

2:
 ([31, 26, 18, 12, 45, 36, 7, 19, 38, 28, 41, 35, 42, 8, 23, 15, 6, 16, 10, 29, 21, 14, 30, 2, 22, 11, 39, 25, 5, 27, 3, 43, 32, 37, 13, 4, 34, 20, 9, 33, 17, 24, 1, 40, 44], -202.63, [[0, 31, 26, 18, 12, 45, 36, 7, 0], [-3, 19, 38, -3], [-1, 28, 41, 35, 42, 8, 23, 15, -1], [-2, 6, -2], [-3, 16, 10, 29, 21, 14, 30, -3], [-3, 2, 22, 11, 39, 25, 5, -3], [-4, 27, 3, 43, 32, 37, 13, 4, -4], [0, 34, 20, 9, 0], [-3, 33, 17, 24, 1, 40, 44, -3]], [75, 50, 75, 40, 75, 75, 75, 40, 75], [12, 4, 12, 6, 8, 10, 13, 6, 4])
 [-291.46, -243.5, -236.27, -227.68, -220.21, -219.36, -212.57, -202.63]

3:
 ([25, 14, 4, 7, 15, 9, 5, 40, 31, 27, 13, 22, 41, 35, 19, 38, 33, 1, 17, 29, 24, 2, 10, 23, 45, 26, 34, 20, 3, 16, 6, 44, 18, 12, 28, 8, 36, 21, 32, 30, 42, 11, 43, 39, 37], -204.92, [[0, 25, 0], [-3, 14, 4, 7, 15, 9, 5, -3], [0, 40, 31, 27, 0], [-2, 13, 22, 41, 35, 19, 38, 33, 1, 17, 29, 24, 2, 10, 23, 45, 26, -2], [0, 34, 20, 3, 16, 6, 44, 0], [0, 18, 12, 28, 0], [-4, 8, 36, 21, 32, -4], [-3, 30, 42, 11, 43, 39, 37, -3]], [40, 75, 75, 75, 75, 40, 50, 75], [3, 13, 12, 3, 14, 8, 9, 10])
 [-278.13, -246.19, -229.56, -229.52, -224.31, -221.9, -204.92]

4:
 ([5, 12, 27, 43, 36, 15, 34, 13, 14, 6, 22, 4, 31, 8, 45, 16, 37, 35, 3, 28, 2, 38, 20, 11, 32, 41, 44, 23, 21, 25, 10, 30, 7, 40, 33, 17, 24, 39, 42, 29, 18, 26, 19, 1, 9], -208.84, [[-1, 5, 12, 27, 43, 36, 15, 34, -1], [-2, 13, 14, 6, 22, 4, 31, 8, -2], [-1, 45, 16, 37, 35, 3, -1], [-1, 28, -1], [-3, 2, 38, 20, 11, 32, 41, 44, -3], [-4, 23, 21, 25, 10, 30, 7, 40, 33, 17, 24, -4], [-4, 39, 42, 29, 18, 26, 19, 1, 9, -4]], [75, 75, 75, 40, 40, 75, 75], [13, 13, 12, 7, 6, 7, 13])
 [-265.28, -233.85, -228.83, -218.45, -211.56, -208.84]

5:
 ([42, 8, 17, 5, 29, 2, 32, 45, 24, 35, 30, 28, 34, 12, 7, 11, 14, 4, 31, 21, 16, 3, 33, 1, 27, 36, 15, 25, 10, 38, 40, 23, 44, 19, 39, 6, 41, 22, 18, 20, 37, 9, 13, 43, 26], -211.26, [[-3, 42, 8, 17, 5, 29, 2, 32, -3], [-1, 45, 24, 35, 30, -1], [-1, 28, 34, 12, 7, 11, -1], [-3, 14, 4, 31, 21, -3], [-3, 16, 3, 33, 1, 27, -3], [-4, 36, 15, 25, 10, 38, 40, 23, 44, 19, 39, -4], [-2, 6, 41, 22, 18, 20, 37, 9, 13, 43, 26, -2]], [75, 50, 75, 75, 75, 75, 75], [12, 8, 14, 10, 15, 3, 6])
 [-235.5, -226.27, -219.21, -211.26]

6:
 ([33, 34, 43, 17, 1, 20, 11, 39, 13, 2, 3, 10, 28, 41, 27, 40, 29, 32, 37, 35, 7, 26, 18, 8, 19, 12, 6, 4, 31, 15, 45, 14, 22, 9, 38, 16, 36, 21, 25, 23, 30, 42, 24, 5, 44], -209.44, [[-3, 33, 34, 43, 17, 1, 20, 11, 39, 13, 2, -3], [-3, 3, 10, 28, 41, 27, 40, 29, 32, 37, 35, -3], [0, 7, 26, 18, 8, 19, 12, 0], [-2, 6, 4, 31, 15, 45, -2], [-3, 14, 22, 9, 38, -3], [-3, 16, 36, 21, 25, 23, 30, 42, -3], [-2, 24, 5, 44, -2]], [75, 75, 75, 75, 40, 75, 50], [12, 11, 13, 11, 7, 11, 5])
 [-275.21, -268.16, -264.75, -263.84, -243.75, -238.17, -231.42, -227.31, -226.63, -226.4, -223.69, -217.82, -213.13, -209.44]

7:
 ([27, 21, 13, 43, 3, 8, 11, 44, 15, 20, 28, 6, 34, 33, 35, 23, 25, 39, 12, 22, 26, 4, 7, 40, 31, 18, 17, 37, 36, 2, 24, 10, 19, 1, 41, 5, 16, 45, 32, 9, 42, 30, 29, 38, 14], -210.52, [[-4, 27, 21, 13, 43, 3, -4], [-4, 8, 11, 44, 15, -4], [-2, 20, 28, -2], [-2, 6, -2], [0, 34, 33, 0], [-4, 35, 23, 25, 39, 12, -4], [-3, 22, 26, -3], [-1, 4, 7, 40, -1], [0, 31, 0], [0, 18, 17, 37, 36, 2, 24, 10, 19, 1, 41, 5, 16, 0], [-1, 45, 32, 9, -1], [-3, 42, 30, 29, 38, 14, -3]], [75, 40, 40, 40, 50, 40, 40, 40, 40, 75, 75, 75], [13, 6, 1, 6, 10, 4, 0, 0, 6, 10, 13, 7])
 [-247.67, -230.9, -229.44, -225.31, -219.62, -217.41, -210.63, -210.52]

8:
 ([43, 35, 23, 27, 1, 40, 44, 4, 38, 36, 7, 6, 34, 3, 13, 5, 39, 19, 9, 33, 25, 41, 29, 16, 11, 14, 12, 30, 2, 24, 22, 10, 32, 15, 37, 31, 17, 21, 28, 18, 8, 45, 42, 26, 20], -210.68, [[-1, 43, 35, 23, 27, 1, 40, 44, 4, 38, 36, 7, 6, -1], [0, 34, 3, 13, 0], [-1, 5, 39, 19, -1], [-1, 9, 33, 25, 41, 29, 16, 11, -1], [-3, 14, 12, 30, -3], [-3, 2, 24, 22, 10, 32, 15, 37, 31, 17, 21, -3], [-1, 28, 18, 8, -1], [-1, 45, 42, 26, 20, -1]], [75, 75, 75, 75, 50, 75, 75, 75], [5, 10, 9, 15, 6, 7, 14, 7])
 [-244.01, -240.74, -240.47, -230.59, -226.18, -223.54, -223.08, -220.81, -218.69, -210.68]

9:
 ([14, 39, 22, 24, 35, 8, 23, 37, 30, 13, 4, 19, 38, 2, 15, 20, 40, 9, 33, 17, 41, 27, 44, 7, 26, 42, 45, 34, 11, 1, 21, 36, 28, 10, 32, 5, 43, 31, 16, 25, 18, 29, 12, 3, 6], -217.62, [[-3, 14, 39, 22, 24, 35, 8, 23, 37, 30, 13, 4, 19, 38, 2, -3], [-1, 15, 20, 40, 9, 33, 17, 41, -1], [-4, 27, 44, 7, 26, 42, -4], [-1, 45, 34, 11, 1, 21, 36, -1], [-1, 28, 10, 32, 5, 43, -1], [0, 31, 16, 25, 0], [0, 18, 29, 12, 3, 6, 0]], [75, 75, 50, 75, 75, 75, 50], [10, 6, 7, 13, 12, 14, 6])
 [-282.25, -271.28, -257.63, -252.76, -242.45, -226.52, -222.58, -220.19, -217.62]

10:
 ([21, 37, 9, 34, 36, 26, 4, 6, 41, 38, 11, 16, 29, 35, 30, 15, 2, 1, 28, 12, 10, 45, 3, 20, 31, 40, 8, 43, 13, 22, 23, 19, 25, 17, 27, 42, 44, 7, 33, 14, 18, 24, 5, 39, 32], -204.21, [[-4, 21, 37, 9, 34, 36, -4], [-4, 26, 4, 6, 41, 38, 11, 16, 29, 35, 30, -4], [-1, 15, 2, 1, 28, 12, 10, 45, 3, 20, 31, 40, -1], [-4, 8, 43, 13, 22, 23, 19, 25, 17, 27, -4], [-3, 42, 44, 7, 33, 14, -3], [0, 18, 24, 5, 0], [-4, 39, 32, -4]], [75, 75, 75, 75, 75, 50, 75], [14, 10, 10, 6, 10, 9, 6])
 [-277.23, -237.76, -226.19, -223.63, -218.91, -204.21]

11:
 ([34, 27, 37, 12, 39, 5, 16, 30, 43, 8, 41, 25, 36, 18, 24, 2, 21, 40, 32, 9, 17, 31, 42, 26, 10, 33, 7, 1, 28, 38, 22, 11, 13, 35, 3, 4, 14, 44, 20, 45, 19, 23, 6, 15, 29], -212.17, [[0, 34, 27, 37, 12, 39, 5, 0], [-3, 16, -3], [-3, 30, 43, 8, 41, 25, 36, -3], [0, 18, 24, 2, 21, 40, 0], [-3, 32, 9, 17, 31, -3], [-3, 42, 26, 10, 33, 7, 1, 28, 38, 22, 11, -3], [-2, 13, 35, 3, 4, -2], [-3, 14, 44, 20, 45, 19, 23, 6, 15, 29, -3]], [75, 40, 50, 75, 75, 75, 40, 75], [13, 5, 7, 13, 15, 11, 6, 7])
 [-267.25, -264.0, -258.54, -242.15, -229.84, -222.85, -212.52, -212.17]

12:
 ([31, 18, 7, 36, 3, 16, 21, 1, 45, 11, 22, 34, 42, 38, 2, 17, 37, 20, 6, 41, 33, 5, 29, 4, 8, 26, 24, 15, 40, 32, 23, 13, 12, 14, 9, 43, 10, 44, 25, 28, 39, 30, 35, 27, 19], -211.7, [[0, 31, 0], [0, 18, 7, 36, 3, 16, 0], [-4, 21, 1, 45, 11, 22, 34, -4], [-3, 42, 38, 2, 17, 37, 20, 6, 41, 33, 5, 29, 4, 8, 26, 24, 15, -3], [0, 40, 32, 23, 13, 12, 14, 0], [-1, 9, 43, 10, 44, 25, 28, 39, -1], [-3, 30, 35, 27, 19, -3]], [40, 75, 40, 75, 75, 75, 75], [6, 12, 7, 11, 6, 12, 12])
 [-251.41, -241.71, -236.77, -228.59, -217.9, -211.7]

13:
 ([18, 13, 42, 29, 7, 35, 17, 15, 5, 3, 38, 22, 14, 43, 39, 4, 16, 10, 33, 34, 40, 1, 26, 27, 20, 6, 23, 37, 32, 41, 12, 30, 8, 31, 11, 24, 25, 19, 44, 21, 45, 9, 36, 28, 2], -213.61, [[0, 18, 13, 0], [-3, 42, 29, 7, 35, 17, 15, 5, 3, 38, 22, 14, -3], [-1, 43, 39, 4, 16, 10, 33, -1], [0, 34, 40, 1, 26, 27, 20, 6, 23, 37, 32, 41, 12, 30, 8, 0], [0, 31, 0], [-1, 11, 24, 25, 19, 44, 21, 45, -1], [-1, 9, 36, -1], [-1, 28, -1], [-3, 2, -3]], [40, 75, 40, 75, 40, 75, 40, 40, 75], [5, 9, 3, 12, 6, 13, 6, 7, 4])
 [-267.76, -266.14, -256.27, -255.12, -251.43, -244.95, -240.85, -220.48, -213.61]

14:
 ([33, 44, 9, 5, 3, 21, 16, 15, 20, 41, 38, 30, 37, 27, 2, 24, 1, 25, 7, 17, 29, 39, 19, 10, 42, 35, 23, 18, 14, 13, 43, 6, 28, 32, 22, 26, 12, 31, 45, 11, 36, 40, 34, 8, 4], -208.67, [[-3, 33, 44, 9, 5, 3, -3], [-4, 21, 16, 15, 20, 41, -4], [-3, 38, 30, 37, 27, 2, 24, 1, 25, -3], [0, 7, 17, 29, 39, 19, 10, 42, 35, 23, 18, 0], [-3, 14, 13, 43, -3], [-2, 6, 28, -2], [-3, 32, 22, 26, 12, 31, 45, 11, 36, 40, -3], [0, 34, 0], [-4, 8, 4, -4]], [75, 50, 75, 50, 75, 75, 75, 40, 40], [14, 9, 13, 2, 8, 13, 9, 6, 3])
 [-246.68, -243.63, -220.97, -220.79, -220.78, -215.13, -208.67]

15:
 ([17, 34, 29, 36, 41, 27, 2, 15, 40, 9, 19, 30, 8, 42, 23, 35, 32, 24, 33, 20, 10, 45, 4, 39, 21, 25, 3, 11, 13, 26, 28, 38, 16, 5, 44, 22, 37, 31, 6, 14, 1, 7, 43, 12, 18], -214.88, [[-2, 17, 34, 29, 36, 41, 27, -2], [-3, 2, 15, 40, 9, -3], [-3, 19, 30, 8, 42, 23, 35, -3], [-3, 32, 24, 33, 20, -3], [-3, 10, 45, 4, 39, 21, 25, 3, -3], [-1, 11, 13, 26, 28, -1], [-3, 38, 16, -3], [-1, 5, 44, 22, 37, 31, 6, -1], [-3, 14, 1, 7, 43, 12, 18, -3]], [40, 75, 75, 50, 75, 75, 40, 75, 50], [5, 12, 10, 9, 5, 13, 6, 6, 7])
 [-285.14, -262.27, -260.0, -244.19, -242.31, -232.93, -231.89, -231.5, -214.88]

16:
 ([9, 38, 19, 26, 25, 44, 24, 6, 3, 43, 40, 1, 31, 10, 34, 13, 8, 17, 45, 2, 42, 23, 7, 36, 33, 4, 39, 29, 16, 11, 20, 22, 27, 12, 30, 35, 14, 18, 37, 15, 32, 5, 21, 28, 41], -213.9, [[-1, 9, 38, 19, 26, -1], [0, 25, 44, 24, 6, 3, 43, 40, 1, 0], [0, 31, 10, 34, 0], [-2, 13, 8, 17, 45, -2], [-3, 2, 42, 23, 7, 36, 33, 4, 39, 29, 16, 11, 20, -3], [-3, 22, 27, 12, 30, 35, -3], [-3, 14, 18, 37, 15, 32, -3], [-1, 5, 21, -1], [-1, 28, 41, -1]], [75, 75, 50, 40, 75, 40, 75, 50, 50], [12, 12, 8, 6, 8, 0, 14, 7, 7])
 [-269.2, -261.91, -259.17, -233.84, -232.35, -221.4, -217.8, -217.06, -213.9]

17:
 ([24, 8, 3, 44, 12, 45, 15, 17, 18, 5, 38, 41, 31, 32, 9, 36, 1, 35, 10, 19, 16, 43, 39, 26, 7, 13, 25, 23, 30, 11, 20, 29, 6, 34, 40, 4, 33, 37, 2, 28, 22, 42, 21, 14, 27], -214.53, [[-2, 24, 8, 3, 44, 12, 45, 15, 17, 18, 5, 38, 41, -2], [0, 31, 32, 0], [-1, 9, 36, 1, 35, 10, 19, 16, 43, 39, -1], [-4, 26, 7, 13, 25, 23, 30, 11, 20, 29, 6, -4], [0, 34, 40, 4, 33, 37, 0], [-3, 2, 28, 22, 42, 21, -3], [-3, 14, 27, -3]], [75, 75, 75, 75, 50, 75, 75], [13, 10, 12, 9, 7, 11, 11])
 [-246.4, -233.45, -218.22, -214.53]

18:
 ([26, 20, 8, 28, 41, 9, 4, 39, 19, 15, 6, 29, 5, 27, 12, 45, 2, 10, 17, 35, 13, 1, 37, 31, 43, 38, 33, 34, 24, 40, 30, 7, 3, 42, 16, 44, 32, 18, 14, 22, 25, 23, 36, 11, 21], -207.63, [[-4, 26, 20, 8, -4], [-1, 28, 41, -1], [-1, 9, 4, 39, 19, 15, 6, 29, 5, -1], [-4, 27, 12, 45, 2, 10, 17, 35, 13, 1, 37, 31, 43, -4], [-3, 38, 33, 34, 24, 40, -3], [-3, 30, 7, 3, 42, -3], [-3, 16, 44, 32, -3], [0, 18, 14, 22, 25, 23, 36, 11, 21, 0]], [40, 40, 75, 75, 75, 75, 40, 75], [2, 7, 13, 11, 13, 8, 6, 10])
 [-273.63, -265.86, -262.57, -248.25, -240.52, -224.08, -223.63, -220.96, -220.3, -215.2, -207.63]

19:
 ([26, 33, 18, 36, 8, 23, 42, 45, 28, 4, 7, 25, 22, 13, 30, 35, 15, 29, 14, 44, 6, 41, 11, 17, 32, 16, 10, 20, 1, 37, 31, 34, 9, 43, 3, 12, 5, 40, 24, 2, 39, 19, 38, 27, 21], -193.79, [[-4, 26, 33, 18, 36, 8, 23, 42, -4], [-1, 45, 28, 4, 7, 25, 22, 13, 30, 35, 15, 29, -1], [-3, 14, 44, -3], [-2, 6, 41, 11, 17, -2], [-3, 32, -3], [-3, 16, 10, 20, 1, 37, 31, 34, -3], [-1, 9, 43, 3, 12, 5, 40, 24, -1], [-3, 2, 39, 19, 38, -3], [-4, 27, 21, -4]], [75, 75, 40, 40, 40, 75, 75, 75, 40], [12, 10, 6, 7, 4, 5, 13, 10, 8])
 [-256.95, -253.44, -243.47, -232.15, -232.12, -223.56, -222.35, -221.74, -212.33, -206.27, -204.52, -193.79]

20:
 ([21, 27, 18, 20, 2, 30, 3, 10, 31, 24, 29, 23, 33, 25, 5, 37, 17, 41, 13, 45, 11, 22, 26, 28, 14, 36, 8, 42, 44, 16, 12, 43, 7, 34, 4, 15, 19, 40, 1, 38, 32, 9, 35, 6, 39], -202.77, [[-4, 21, 27, -4], [0, 18, 20, 2, 30, 3, 10, 31, 24, 29, 23, 33, 25, 0], [-1, 5, 37, 17, 41, 13, 45, 11, 22, 26, 28, -1], [-3, 14, 36, 8, 42, 44, 16, 12, 43, -3], [0, 7, 34, 4, 0], [-1, 15, 19, 40, 1, 38, 32, -1], [-1, 9, 35, 6, -1], [-4, 39, -4]], [40, 75, 75, 75, 40, 75, 75, 75], [8, 10, 10, 12, 7, 8, 14, 2])
 [-276.74, -270.75, -267.68, -250.68, -246.93, -246.48, -245.84, -234.16, -233.61, -209.68, -202.77]

